
  32    4
  10   10   10   10

   0   0   0   0   0   3 2 3 6 
   9  10  10  10  10   3 7 5 4 
   1  10  10  10  10   4 11 10 7 5 
   6  10  10  10  10   4 12 11 10 8 
   3  10  10  10  10   3 18 12 9 
   7  10  10  10  10   3 20 11 9 
   6  10  10  10  10   4 20 18 16 9 
   3  10  10  10  10   7 20 19 17 16 15 14 13 
   3  10  10  10  10   5 19 17 15 14 13 
   1  10  10  10  10   5 20 18 16 15 13 
   4  10  10  10  10   4 18 16 14 13 
   4  10  10  10  10   3 20 16 13 
  10  10  10  10  10   4 31 28 23 22 
   2  10  10  10  10   4 31 28 23 22 
  10  10  10  10  10   4 31 29 23 21 
   2  10  10  10  10   3 31 22 21 
   8  10  10  10  10   3 31 22 21 
   3  10  10  10  10   5 31 29 28 27 23 
  10  10  10  10  10   5 31 28 26 25 22 
   3  10  10  10  10   3 31 29 21 
   9  10  10  10  10   5 28 27 26 25 24 
   6  10  10  10  10   4 30 29 27 24 
   5  10  10  10  10   4 30 26 25 24 
   1  10  10  10  10   1 32
   6  10  10  10  10   1 32
   5  10  10  10  10   1 32
   2  10  10  10  10   1 32
   2  10  10  10  10   1 32
   5  10  10  10  10   1 32
   9  10  10  10  10   1 32
   7  10  10  10  10   1 32
   0   0   0   0   0   0 
